c description: Random 3-CNF over 22 variables and 94 clauses
c generator: CNFgen (0.9.2)
c copyright: (C) 2012-2022 Massimo Lauria <massimo.lauria@uniroma1.it>
c url: https://massimolauria.net/cnfgen
c command line: cnfgen --output CNF_4.28/22_bit_94_740.cnf randkcnf 3 22 94
c
p cnf 22 94
-9 -14 21 0
-6 -7 18 0
1 -3 -17 0
-2 6 20 0
-16 17 -20 0
4 14 -15 0
-7 -15 -21 0
2 11 -18 0
-2 -20 -22 0
-3 -7 22 0
12 20 -21 0
-8 10 -14 0
-8 12 -21 0
2 -6 18 0
6 9 20 0
5 -6 18 0
3 9 -22 0
4 16 19 0
-6 8 9 0
-5 -12 16 0
-3 9 17 0
2 -11 15 0
-3 -9 19 0
-8 10 -21 0
2 -3 9 0
-6 -11 22 0
-2 -4 6 0
13 17 -21 0
-5 -9 21 0
-8 15 20 0
8 -16 -20 0
3 -15 19 0
4 10 -21 0
1 -5 15 0
-3 15 -22 0
-5 6 -21 0
8 -13 -19 0
-10 -11 -14 0
-1 -3 -9 0
-5 14 22 0
-16 -17 21 0
-5 -6 -7 0
17 18 -21 0
1 -11 -21 0
1 -2 -5 0
8 9 -12 0
8 18 -21 0
-7 -17 20 0
-5 -18 -19 0
-13 -18 22 0
-3 -4 -20 0
12 15 -22 0
-4 10 -12 0
9 -12 -13 0
4 -10 -17 0
1 3 5 0
-5 11 -15 0
4 5 -19 0
-4 14 19 0
-1 13 16 0
8 14 -21 0
-2 -15 -19 0
6 -11 14 0
1 -19 22 0
-12 14 -20 0
-5 -7 -15 0
-11 -21 22 0
4 -8 -11 0
-6 -15 19 0
-1 17 -21 0
-5 -7 10 0
-8 11 -22 0
-12 13 -20 0
2 -9 19 0
-11 -14 -18 0
6 18 20 0
-1 14 15 0
2 -19 -21 0
3 -7 17 0
4 -19 -22 0
-3 15 -20 0
-15 16 18 0
-16 18 -20 0
9 10 -20 0
-2 13 -14 0
-10 -12 13 0
5 -8 16 0
-11 13 -14 0
13 20 -21 0
-1 10 22 0
-12 16 -22 0
-5 9 -19 0
6 -7 11 0
3 -5 8 0
